\* CalculatorSales@ *\
Maximize
total_$_sales: 5 graphing
Subject To
min_daily_shipment: graphing + scientific >= 200
Bounds
80 <= graphing <= 170
100 <= scientific <= 200
Generals
graphing
scientific
End
